% seed = 3069928

mint = 76;
% maxt = 238;

nActs = 42;
dur = [0,7,10,6,9,4,6,8,9,8,6,1,1,1,5,8,8,5,7,9,9,2,9,5,7,1,4,6,7,3,5,1,5,3,9,9,10,8,4,9,4,0];

nSkills = 4;
sreq = [| 0,0,0,0,
	| 3,0,2,0,
	| 0,0,4,3,
	| 5,3,4,3,
	| 1,4,3,3,
	| 7,6,0,0,
	| 1,4,4,3,
	| 0,4,0,4,
	| 7,0,7,0,
	| 2,3,7,1,
	| 2,4,3,5,
	| 4,6,0,0,
	| 6,0,2,3,
	| 0,4,7,0,
	| 1,3,4,1,
	| 0,0,3,6,
	| 0,3,5,3,
	| 4,5,4,0,
	| 3,2,3,3,
	| 0,0,7,7,
	| 3,4,7,0,
	| 2,2,2,5,
	| 2,5,7,2,
	| 2,4,3,3,
	| 4,2,2,6,
	| 0,3,7,5,
	| 3,2,6,0,
	| 3,0,5,6,
	| 3,1,1,4,
	| 6,5,6,0,
	| 5,0,0,4,
	| 3,4,2,6,
	| 5,2,1,2,
	| 3,3,4,0,
	| 3,7,0,3,
	| 5,0,0,7,
	| 6,0,7,0,
	| 5,4,3,5,
	| 1,3,4,4,
	| 3,2,3,4,
	| 0,7,0,6,
	| 0,0,0,0, |];

nResources = 38;
mastery = [| true,true,false,false,
	| true,false,false,false,
	| true,true,false,false,
	| false,false,false,true,
	| false,false,false,true,
	| false,true,false,true,
	| false,false,true,false,
	| false,true,false,true,
	| true,false,false,false,
	| false,false,false,true,
	| true,true,false,false,
	| true,false,false,false,
	| false,true,true,true,
	| true,true,true,false,
	| false,true,false,true,
	| false,true,false,false,
	| false,false,true,true,
	| true,true,false,false,
	| false,true,true,false,
	| true,false,true,true,
	| false,true,true,true,
	| true,true,false,false,
	| false,true,true,false,
	| true,true,false,true,
	| false,false,false,true,
	| true,false,false,true,
	| true,false,false,true,
	| false,true,false,true,
	| true,true,true,false,
	| true,false,false,false,
	| true,false,false,true,
	| true,false,false,true,
	| false,false,true,true,
	| false,false,false,true,
	| true,false,false,false,
	| false,true,true,false,
	| false,true,false,false,
	| false,true,false,true, |];

nPrecs = 85;
pred = [1,1,1,2,2,2,3,3,4,4,4,5,5,6,6,6,7,7,7,8,8,8,9,9,10,10,10,11,11,11,12,12,12,13,13,13,14,14,14,15,15,16,16,17,18,18,18,19,19,19,20,20,20,21,22,22,23,23,24,24,25,25,25,26,27,28,29,29,29,30,30,31,32,32,32,33,34,35,36,37,37,38,39,40,41];
succ = [2,3,4,28,20,13,5,6,18,11,29,24,32,10,7,8,9,33,38,27,12,32,17,21,12,14,15,41,15,16,19,13,35,26,21,22,18,20,16,21,23,28,23,24,25,26,22,29,28,37,24,30,22,30,34,37,26,30,27,35,35,31,32,39,29,33,33,34,31,34,36,41,36,37,39,36,40,39,40,41,38,40,42,42,42];

nUnrels = 372;
unpred = [2,2,2,2,2,2,2,2,2,2,2,2,2,2,2,2,2,2,2,3,3,4,4,4,4,4,4,4,4,4,4,4,4,4,4,5,5,5,5,5,5,5,5,5,5,5,5,5,5,5,5,5,5,5,5,5,5,6,7,7,7,7,7,7,7,7,7,7,7,7,7,7,7,7,7,7,8,8,8,8,8,8,8,8,8,8,8,8,9,9,9,9,9,9,9,9,9,9,9,9,9,9,9,9,9,9,10,10,11,11,11,11,11,11,11,11,11,11,11,11,11,11,11,11,11,12,12,12,12,12,12,12,12,12,12,12,13,13,13,13,13,13,13,13,13,13,13,13,13,13,13,13,13,14,14,14,14,15,15,15,15,15,15,15,15,15,15,15,15,15,15,15,15,15,15,16,16,16,16,16,16,16,16,16,16,16,16,16,16,16,16,17,17,17,17,17,17,17,17,17,17,17,17,17,18,18,18,18,18,18,18,18,18,18,19,19,19,19,19,19,19,19,19,19,19,19,20,20,20,20,20,20,21,21,21,21,21,21,21,21,21,21,21,21,21,21,21,21,22,22,22,22,22,22,22,22,22,22,22,22,22,22,23,23,23,23,23,23,23,23,23,23,23,23,24,24,24,24,24,24,24,25,25,25,25,25,25,25,26,26,26,26,26,26,26,26,26,26,26,26,26,26,27,27,27,27,27,27,27,28,28,28,28,28,28,28,28,28,28,29,29,29,29,29,29,30,30,30,30,30,30,30,30,31,31,31,31,31,31,31,31,31,32,32,32,33,33,33,33,33,33,34,34,34,34,34,34,35,35,35,35,35,36,36,36,36,37,38,38,39,39,40];
unsucc = [3,4,5,6,7,8,9,10,11,12,14,15,16,17,18,19,23,25,32,4,11,5,6,7,8,9,10,12,13,14,17,19,20,24,27,6,7,8,9,10,11,12,13,14,15,16,17,18,19,20,21,22,23,25,26,28,30,11,8,10,11,12,13,14,15,16,18,19,20,22,23,25,26,28,32,37,9,10,11,14,15,16,17,18,20,23,24,25,10,11,12,13,14,15,16,18,19,20,22,23,25,26,28,32,37,38,11,17,12,13,14,17,18,19,20,22,24,25,27,29,31,32,35,37,38,14,15,16,17,18,20,23,24,25,27,32,14,15,16,17,18,19,20,23,24,25,27,28,29,31,32,33,35,15,17,19,21,16,17,18,19,20,22,24,25,27,28,29,31,32,33,35,37,38,41,17,18,19,20,21,22,24,25,27,29,31,32,35,37,38,41,18,19,20,21,22,23,25,26,28,30,32,37,38,19,20,21,23,24,27,28,29,30,33,20,21,22,23,24,25,26,27,30,32,35,39,21,23,25,26,28,32,22,23,24,25,26,27,28,29,31,32,33,35,37,38,39,41,23,24,25,26,27,28,29,30,31,32,33,35,36,39,24,25,27,28,29,31,32,33,35,37,38,41,25,26,28,30,32,37,38,26,27,28,29,30,33,34,27,28,29,30,31,32,33,34,35,36,37,38,40,41,28,30,32,35,37,38,39,29,30,31,32,34,35,37,38,39,41,30,32,35,37,38,39,31,32,33,35,37,38,39,41,32,33,34,35,36,37,38,39,40,33,34,35,34,35,37,38,39,41,35,36,37,38,39,41,36,37,38,40,41,37,38,39,41,39,39,41,40,41,41];

USEFUL_RES = [{},
	{1,2,3,7,9,11,12,13,14,17,18,19,20,21,22,23,24,26,27,29,30,31,32,33,35,36},
	{4,5,6,7,8,10,13,14,15,17,19,20,21,23,24,25,26,27,28,29,31,32,33,34,36,38},
	{1,2,3,4,5,6,7,8,9,10,11,12,13,14,15,16,17,18,19,20,21,22,23,24,25,26,27,28,29,30,31,32,33,34,35,36,37,38},
	{1,2,3,4,5,6,7,8,9,10,11,12,13,14,15,16,17,18,19,20,21,22,23,24,25,26,27,28,29,30,31,32,33,34,35,36,37,38},
	{1,2,3,6,8,9,11,12,13,14,15,16,18,19,20,21,22,23,24,26,27,28,29,30,31,32,35,36,37,38},
	{1,2,3,4,5,6,7,8,9,10,11,12,13,14,15,16,17,18,19,20,21,22,23,24,25,26,27,28,29,30,31,32,33,34,35,36,37,38},
	{1,3,4,5,6,8,10,11,13,14,15,16,17,18,19,20,21,22,23,24,25,26,27,28,29,31,32,33,34,36,37,38},
	{1,2,3,7,9,11,12,13,14,17,18,19,20,21,22,23,24,26,27,29,30,31,32,33,35,36},
	{1,2,3,4,5,6,7,8,9,10,11,12,13,14,15,16,17,18,19,20,21,22,23,24,25,26,27,28,29,30,31,32,33,34,35,36,37,38},
	{1,2,3,4,5,6,7,8,9,10,11,12,13,14,15,16,17,18,19,20,21,22,23,24,25,26,27,28,29,30,31,32,33,34,35,36,37,38},
	{1,2,3,6,8,9,11,12,13,14,15,16,18,19,20,21,22,23,24,26,27,28,29,30,31,32,35,36,37,38},
	{1,2,3,4,5,6,7,8,9,10,11,12,13,14,15,17,18,19,20,21,22,23,24,25,26,27,28,29,30,31,32,33,34,35,36,38},
	{1,3,6,7,8,11,13,14,15,16,17,18,19,20,21,22,23,24,28,29,33,36,37,38},
	{1,2,3,4,5,6,7,8,9,10,11,12,13,14,15,16,17,18,19,20,21,22,23,24,25,26,27,28,29,30,31,32,33,34,35,36,37,38},
	{4,5,6,7,8,10,13,14,15,17,19,20,21,23,24,25,26,27,28,29,31,32,33,34,36,38},
	{1,3,4,5,6,7,8,10,11,13,14,15,16,17,18,19,20,21,22,23,24,25,26,27,28,29,31,32,33,34,36,37,38},
	{1,2,3,6,7,8,9,11,12,13,14,15,16,17,18,19,20,21,22,23,24,26,27,28,29,30,31,32,33,35,36,37,38},
	{1,2,3,4,5,6,7,8,9,10,11,12,13,14,15,16,17,18,19,20,21,22,23,24,25,26,27,28,29,30,31,32,33,34,35,36,37,38},
	{4,5,6,7,8,10,13,14,15,17,19,20,21,23,24,25,26,27,28,29,31,32,33,34,36,38},
	{1,2,3,6,7,8,9,11,12,13,14,15,16,17,18,19,20,21,22,23,24,26,27,28,29,30,31,32,33,35,36,37,38},
	{1,2,3,4,5,6,7,8,9,10,11,12,13,14,15,16,17,18,19,20,21,22,23,24,25,26,27,28,29,30,31,32,33,34,35,36,37,38},
	{1,2,3,4,5,6,7,8,9,10,11,12,13,14,15,16,17,18,19,20,21,22,23,24,25,26,27,28,29,30,31,32,33,34,35,36,37,38},
	{1,2,3,4,5,6,7,8,9,10,11,12,13,14,15,16,17,18,19,20,21,22,23,24,25,26,27,28,29,30,31,32,33,34,35,36,37,38},
	{1,2,3,4,5,6,7,8,9,10,11,12,13,14,15,16,17,18,19,20,21,22,23,24,25,26,27,28,29,30,31,32,33,34,35,36,37,38},
	{1,3,4,5,6,7,8,10,11,13,14,15,16,17,18,19,20,21,22,23,24,25,26,27,28,29,31,32,33,34,36,37,38},
	{1,2,3,6,7,8,9,11,12,13,14,15,16,17,18,19,20,21,22,23,24,26,27,28,29,30,31,32,33,35,36,37,38},
	{1,2,3,4,5,6,7,8,9,10,11,12,13,14,15,17,18,19,20,21,22,23,24,25,26,27,28,29,30,31,32,33,34,35,36,38},
	{1,2,3,4,5,6,7,8,9,10,11,12,13,14,15,16,17,18,19,20,21,22,23,24,25,26,27,28,29,30,31,32,33,34,35,36,37,38},
	{1,2,3,6,7,8,9,11,12,13,14,15,16,17,18,19,20,21,22,23,24,26,27,28,29,30,31,32,33,35,36,37,38},
	{1,2,3,4,5,6,8,9,10,11,12,13,14,15,17,18,20,21,22,24,25,26,27,28,29,30,31,32,33,34,35,38},
	{1,2,3,4,5,6,7,8,9,10,11,12,13,14,15,16,17,18,19,20,21,22,23,24,25,26,27,28,29,30,31,32,33,34,35,36,37,38},
	{1,2,3,4,5,6,7,8,9,10,11,12,13,14,15,16,17,18,19,20,21,22,23,24,25,26,27,28,29,30,31,32,33,34,35,36,37,38},
	{1,2,3,6,7,8,9,11,12,13,14,15,16,17,18,19,20,21,22,23,24,26,27,28,29,30,31,32,33,35,36,37,38},
	{1,2,3,4,5,6,8,9,10,11,12,13,14,15,16,17,18,19,20,21,22,23,24,25,26,27,28,29,30,31,32,33,34,35,36,37,38},
	{1,2,3,4,5,6,8,9,10,11,12,13,14,15,17,18,20,21,22,24,25,26,27,28,29,30,31,32,33,34,35,38},
	{1,2,3,7,9,11,12,13,14,17,18,19,20,21,22,23,24,26,27,29,30,31,32,33,35,36},
	{1,2,3,4,5,6,7,8,9,10,11,12,13,14,15,16,17,18,19,20,21,22,23,24,25,26,27,28,29,30,31,32,33,34,35,36,37,38},
	{1,2,3,4,5,6,7,8,9,10,11,12,13,14,15,16,17,18,19,20,21,22,23,24,25,26,27,28,29,30,31,32,33,34,35,36,37,38},
	{1,2,3,4,5,6,7,8,9,10,11,12,13,14,15,16,17,18,19,20,21,22,23,24,25,26,27,28,29,30,31,32,33,34,35,36,37,38},
	{1,3,4,5,6,8,10,11,13,14,15,16,17,18,19,20,21,22,23,24,25,26,27,28,29,31,32,33,34,36,37,38},
	{}];

POTENTIAL_ACT = [{2,4,5,6,7,8,9,10,11,12,13,14,15,17,18,19,21,22,23,24,25,26,27,28,29,30,31,32,33,34,35,36,37,38,39,40,41},
	{2,4,5,6,7,9,10,11,12,13,15,18,19,21,22,23,24,25,27,28,29,30,31,32,33,34,35,36,37,38,39,40},
	{2,4,5,6,7,8,9,10,11,12,13,14,15,17,18,19,21,22,23,24,25,26,27,28,29,30,31,32,33,34,35,36,37,38,39,40,41},
	{3,4,5,7,8,10,11,13,15,16,17,19,20,22,23,24,25,26,28,29,31,32,33,35,36,38,39,40,41},
	{3,4,5,7,8,10,11,13,15,16,17,19,20,22,23,24,25,26,28,29,31,32,33,35,36,38,39,40,41},
	{3,4,5,6,7,8,10,11,12,13,14,15,16,17,18,19,20,21,22,23,24,25,26,27,28,29,30,31,32,33,34,35,36,38,39,40,41},
	{2,3,4,5,7,9,10,11,13,14,15,16,17,18,19,20,21,22,23,24,25,26,27,28,29,30,32,33,34,37,38,39,40},
	{3,4,5,6,7,8,10,11,12,13,14,15,16,17,18,19,20,21,22,23,24,25,26,27,28,29,30,31,32,33,34,35,36,38,39,40,41},
	{2,4,5,6,7,9,10,11,12,13,15,18,19,21,22,23,24,25,27,28,29,30,31,32,33,34,35,36,37,38,39,40},
	{3,4,5,7,8,10,11,13,15,16,17,19,20,22,23,24,25,26,28,29,31,32,33,35,36,38,39,40,41},
	{2,4,5,6,7,8,9,10,11,12,13,14,15,17,18,19,21,22,23,24,25,26,27,28,29,30,31,32,33,34,35,36,37,38,39,40,41},
	{2,4,5,6,7,9,10,11,12,13,15,18,19,21,22,23,24,25,27,28,29,30,31,32,33,34,35,36,37,38,39,40},
	{2,3,4,5,6,7,8,9,10,11,12,13,14,15,16,17,18,19,20,21,22,23,24,25,26,27,28,29,30,31,32,33,34,35,36,37,38,39,40,41},
	{2,3,4,5,6,7,8,9,10,11,12,13,14,15,16,17,18,19,20,21,22,23,24,25,26,27,28,29,30,31,32,33,34,35,36,37,38,39,40,41},
	{3,4,5,6,7,8,10,11,12,13,14,15,16,17,18,19,20,21,22,23,24,25,26,27,28,29,30,31,32,33,34,35,36,38,39,40,41},
	{4,5,6,7,8,10,11,12,14,15,17,18,19,21,22,23,24,25,26,27,29,30,32,33,34,35,38,39,40,41},
	{2,3,4,5,7,8,9,10,11,13,14,15,16,17,18,19,20,21,22,23,24,25,26,27,28,29,30,31,32,33,34,35,36,37,38,39,40,41},
	{2,4,5,6,7,8,9,10,11,12,13,14,15,17,18,19,21,22,23,24,25,26,27,28,29,30,31,32,33,34,35,36,37,38,39,40,41},
	{2,3,4,5,6,7,8,9,10,11,12,13,14,15,16,17,18,19,20,21,22,23,24,25,26,27,28,29,30,32,33,34,35,37,38,39,40,41},
	{2,3,4,5,6,7,8,9,10,11,12,13,14,15,16,17,18,19,20,21,22,23,24,25,26,27,28,29,30,31,32,33,34,35,36,37,38,39,40,41},
	{2,3,4,5,6,7,8,9,10,11,12,13,14,15,16,17,18,19,20,21,22,23,24,25,26,27,28,29,30,31,32,33,34,35,36,37,38,39,40,41},
	{2,4,5,6,7,8,9,10,11,12,13,14,15,17,18,19,21,22,23,24,25,26,27,28,29,30,31,32,33,34,35,36,37,38,39,40,41},
	{2,3,4,5,6,7,8,9,10,11,12,13,14,15,16,17,18,19,20,21,22,23,24,25,26,27,28,29,30,32,33,34,35,37,38,39,40,41},
	{2,3,4,5,6,7,8,9,10,11,12,13,14,15,16,17,18,19,20,21,22,23,24,25,26,27,28,29,30,31,32,33,34,35,36,37,38,39,40,41},
	{3,4,5,7,8,10,11,13,15,16,17,19,20,22,23,24,25,26,28,29,31,32,33,35,36,38,39,40,41},
	{2,3,4,5,6,7,8,9,10,11,12,13,15,16,17,18,19,20,21,22,23,24,25,26,27,28,29,30,31,32,33,34,35,36,37,38,39,40,41},
	{2,3,4,5,6,7,8,9,10,11,12,13,15,16,17,18,19,20,21,22,23,24,25,26,27,28,29,30,31,32,33,34,35,36,37,38,39,40,41},
	{3,4,5,6,7,8,10,11,12,13,14,15,16,17,18,19,20,21,22,23,24,25,26,27,28,29,30,31,32,33,34,35,36,38,39,40,41},
	{2,3,4,5,6,7,8,9,10,11,12,13,14,15,16,17,18,19,20,21,22,23,24,25,26,27,28,29,30,31,32,33,34,35,36,37,38,39,40,41},
	{2,4,5,6,7,9,10,11,12,13,15,18,19,21,22,23,24,25,27,28,29,30,31,32,33,34,35,36,37,38,39,40},
	{2,3,4,5,6,7,8,9,10,11,12,13,15,16,17,18,19,20,21,22,23,24,25,26,27,28,29,30,31,32,33,34,35,36,37,38,39,40,41},
	{2,3,4,5,6,7,8,9,10,11,12,13,15,16,17,18,19,20,21,22,23,24,25,26,27,28,29,30,31,32,33,34,35,36,37,38,39,40,41},
	{2,3,4,5,7,8,9,10,11,13,14,15,16,17,18,19,20,21,22,23,24,25,26,27,28,29,30,31,32,33,34,35,36,37,38,39,40,41},
	{3,4,5,7,8,10,11,13,15,16,17,19,20,22,23,24,25,26,28,29,31,32,33,35,36,38,39,40,41},
	{2,4,5,6,7,9,10,11,12,13,15,18,19,21,22,23,24,25,27,28,29,30,31,32,33,34,35,36,37,38,39,40},
	{2,3,4,5,6,7,8,9,10,11,12,13,14,15,16,17,18,19,20,21,22,23,24,25,26,27,28,29,30,32,33,34,35,37,38,39,40,41},
	{4,5,6,7,8,10,11,12,14,15,17,18,19,21,22,23,24,25,26,27,29,30,32,33,34,35,38,39,40,41},
	{3,4,5,6,7,8,10,11,12,13,14,15,16,17,18,19,20,21,22,23,24,25,26,27,28,29,30,31,32,33,34,35,36,38,39,40,41}];
